n=20;
a=[7,4,2,3,6,9,5,4,7,4,8,7,6,7,5,6,10,8,5,2];
b=[0,0,0,0,4,4,0,0,0,0,0,1,0,0,0,0,0,0,0,2,0,0,0,3,4,0,4,0,3,4,0,0,0,0,0,0,0,0,0,0,0,0,0,0,2,0,0,2,0,1,0,0,0,0,0,1,0,0,0,0,0,3,0,0,0,0,0,3,0,0,0,0,0,0,0,0,0,0,0,0,4,4,2,0,0,0,4,0,4,0,3,2,0,0,0,0,0,0,0,0,4,0,0,0,0,0,0,0,0,4,0,4,2,0,0,3,0,0,0,0,0,4,0,0,4,0,0,0,4,0,0,1,0,0,2,0,0,4,0,2,0,0,2,3,0,0,0,0,0,0,0,0,0,0,0,0,4,0,0,0,0,3,0,0,4,0,4,0,0,0,3,0,0,0,0,0,0,0,0,0,0,4,1,0,0,4,0,0,0,0,0,0,4,0,0,3,0,0,4,0,0,0,0,0,3,0,0,0,3,0,0,0,0,0,0,0,0,0,4,0,1,0,0,0,2,4,1,0,0,0,0,0,0,0,0,0,2,0,0,2,0,0,0,0,0,2,0,0,0,4,0,0,0,0,0,0,0,0,0,0,0,0,0,0,0,0,0,0,0,0,0,0,0,0,0,0,4,0,0,2,0,0,0,0,0,0,2,0,0,0,0,0,0,0,0,0,0,4,3,0,0,0,1,0,0,3,0,0,0,3,0,0,0,0,0,0,3,0,0,0,0,0,0,0,0,0,0,4,0,0,0,2,0,4,0,3,0,0,0,0,0,0,0,0,0,0,4,0,0,0,0,0,0,0,4,0,0,0,0,0,0,0,0,0,0,0,0,0,0,4,4,0,0,0,3,0,0,0,0,1,2,0,0,0,0,0,2,0,0,0,0,2,0,2,0,0,0,0,1,0];
